DATASET = "thpack6";
INSTANCE = "097";

WIDTH = 233;
HEIGHT = 220;
LENGTH = 587;

NO_OF_SHAPES = 15;
size = [|
  74,60,32 |
  100,50,43 |
  95,74,42 |
  95,70,30 |
  45,37,24 |
  67,60,25 |
  55,51,35 |
  76,71,61 |
  119,88,51 |
  98,81,26 |
  86,69,61 |
  117,54,30 |
  96,40,24 |
  54,52,41 |
  89,61,41 |
|];

verticality = [|
  0,1,1 |
  0,1,1 |
  0,1,1 |
  0,0,1 |
  1,1,1 |
  0,0,1 |
  1,1,1 |
  1,1,1 |
  0,1,1 |
  0,0,1 |
  1,1,1 |
  0,1,1 |
  0,1,1 |
  1,1,1 |
  0,1,1 |
|];

box_count = [
  10,
  8,
  11,
  8,
  11,
  8,
  11,
  10,
  8,
  7,
  13,
  10,
  8,
  8,
  10,
];
